problems/csplib-prob049/set_partition_full-models/01_noch_lvlPruned/O2/minion/model_1_1-16-3-solution000001.eprime-solution
language ESSENCE' 1.0

letting setA_Occurrence be
        [false, true, true, false, true, false, false, true, true, false, false, true, false, true, true, false;
             int(1..16)]
letting setB_Occurrence be
        [true, false, false, true, false, true, true, false, false, true, true, false, true, false, false, true;
             int(1..16)]
