problems/csplib-prob049/set_partition_full-models/01_noch_lvlPruned/O2/minion/model_1_1-16-3-solution000001.solution
language Essence 1.3

letting setA be {2, 3, 5, 8, 9, 12, 14, 15}
letting setB be {1, 4, 6, 7, 10, 11, 13, 16}
